instances/knapsack/knapsack_general/knapsack_80_1_1.kp
42
80
19803

847 85.0 947 119.94
33 3.0 133 24.45
123 12.0 223 41.81
778 78.0 878 121.09
441 44.0 541 84.52
947 95.0 1047 140.38
650 65.0 750 78.89
183 18.0 283 32.12
123 12.0 223 34.81
293 29.0 393 66.88
689 69.0 789 91.82
932 93.0 1032 196.69
820 82.0 920 163.17
341 34.0 441 82.85
499 50.0 599 82.52
999 100.0 1099 110.62
92 9.0 192 33.26
882 88.0 982 108.22
849 85.0 949 99.06
110 11.0 210 35.01
931 93.0 1031 116.12
266 27.0 366 69.78
682 68.0 782 101.02
246 25.0 346 49.5
203 20.0 303 44.75
566 57.0 666 97.85
835 84.0 935 96.94
629 63.0 729 95.14
748 75.0 848 129.04
954 95.0 1054 156.3
396 40.0 496 90.34
367 37.0 467 76.53
644 64.0 744 116.42
721 72.0 821 160.96
679 68.0 779 78.88
597 60.0 697 131.94
424 42.0 524 86.26
550 55.0 650 93.24
373 37.0 473 72.77
189 19.0 289 51.92
788 79.0 888 141.77
701 70.0 801 146.86
63 6.0 163 24.79
90 9.0 190 26.97
307 31.0 407 61.46
183 18.0 283 52.28
806 81.0 906 149.08
619 62.0 719 124.09
652 65.0 752 81.41
524 52.0 624 92.78
215 22.0 315 39.75
770 77.0 870 116.14
377 38.0 477 74.14
291 29.0 391 73.66
831 83.0 931 160.42
899 90.0 999 138.63
21 2.0 121 21.52
325 32.0 425 43.19
814 81.0 914 144.98
108 11.0 208 38.1
177 18.0 277 37.77
264 26.0 364 69.02
483 48.0 583 116.46
819 82.0 919 129.19
715 72.0 815 122.33
495 50.0 595 108.53
428 43.0 528 55.95
50 5.0 150 19.32
267 27.0 367 54.86
71 7.0 171 30.17
960 96.0 1060 182.35
856 86.0 956 147.62
787 79.0 887 175.69
500 50.0 600 69.23
20 2.0 120 18.44
106 11.0 206 28.4
467 47.0 567 82.86
610 61.0 710 71.72
446 45.0 546 79.52
71 7.0 171 17.46

42
[998]

[[8, 3, 2, 6, 8, 5, 12, 8, 5, 4, 4, 9, 5, 0, 4, 9, 2, 2, 6, 6, 7, 10, 9, 7, 9, 4, 4, 2, 3, 7, 1, 5, 5, 6, 5, 3, 5, 11, 11, 6, 7, 1, 3, 5, 10, 3, 6, 12, 6, 7, 1, 10, 7, 6, 4, 3, 5, 8, 10, 6, 8, 7, 7, 8, 10, 1, 9, 3, 2, 7, 1, 11, 7, 9, 0, 7, 6, 1, 1, 8]]

[[156, 290, 520, 539, 574, 228, 31, 216, 776, 30, 502, 621, 769, 798, 168, 424, 25, 267, 334, 271, 208, 563, 391, 375, 416, 623, 160, 78, 953, 451, 769, 776, 825, 650, 324, 478, 429, 583, 362, 998, 729, 598, 980, 715, 528, 960, 771, 124, 289, 621, 68, 899, 798, 940, 860, 980, 50, 14, 499, 133, 454, 857, 344, 964, 8, 552, 425, 307, 456, 856, 877, 881, 424, 93, 361, 299, 736, 411, 811, 152]]
