instances/knapsack/knapsack_general/knapsack_80_1_1.lp
\ Model knapsack_80_1_1
\ LP format - for model browsing. Use MPS format to capture full model detail.
\ Signature: 0xa1204d4f11138d87
Minimize
  - 947 y[0] - 133 y[1] - 223 y[2] - 878 y[3] - 541 y[4] - 1047 y[5]
   - 750 y[6] - 283 y[7] - 223 y[8] - 393 y[9] - 789 y[10] - 1032 y[11]
   - 920 y[12] - 441 y[13] - 599 y[14] - 1099 y[15] - 192 y[16] - 982 y[17]
   - 949 y[18] - 210 y[19] - 1031 y[20] - 366 y[21] - 782 y[22] - 346 y[23]
   - 303 y[24] - 666 y[25] - 935 y[26] - 729 y[27] - 848 y[28] - 1054 y[29]
   - 496 y[30] - 467 y[31] - 744 y[32] - 821 y[33] - 779 y[34] - 697 y[35]
   - 524 y[36] - 650 y[37] - 473 y[38] - 289 y[39] - 888 y[40] - 801 y[41]
   - 163 y[42] - 190 y[43] - 407 y[44] - 283 y[45] - 906 y[46] - 719 y[47]
   - 752 y[48] - 624 y[49] - 315 y[50] - 870 y[51] - 477 y[52] - 391 y[53]
   - 931 y[54] - 999 y[55] - 121 y[56] - 425 y[57] - 914 y[58] - 208 y[59]
   - 277 y[60] - 364 y[61] - 583 y[62] - 919 y[63] - 815 y[64] - 595 y[65]
   - 528 y[66] - 150 y[67] - 367 y[68] - 171 y[69] - 1060 y[70] - 956 y[71]
   - 887 y[72] - 600 y[73] - 120 y[74] - 206 y[75] - 567 y[76] - 710 y[77]
   - 546 y[78] - 171 y[79]
Subject To
 primal_upper: 847 y[0] + 33 y[1] + 123 y[2] + 778 y[3] + 441 y[4]
   + 947 y[5] + 650 y[6] + 183 y[7] + 123 y[8] + 293 y[9] + 689 y[10]
   + 932 y[11] + 820 y[12] + 341 y[13] + 499 y[14] + 999 y[15] + 92 y[16]
   + 882 y[17] + 849 y[18] + 110 y[19] + 931 y[20] + 266 y[21] + 682 y[22]
   + 246 y[23] + 203 y[24] + 566 y[25] + 835 y[26] + 629 y[27] + 748 y[28]
   + 954 y[29] + 396 y[30] + 367 y[31] + 644 y[32] + 721 y[33] + 679 y[34]
   + 597 y[35] + 424 y[36] + 550 y[37] + 373 y[38] + 189 y[39] + 788 y[40]
   + 701 y[41] + 63 y[42] + 90 y[43] + 307 y[44] + 183 y[45] + 806 y[46]
   + 619 y[47] + 652 y[48] + 524 y[49] + 215 y[50] + 770 y[51] + 377 y[52]
   + 291 y[53] + 831 y[54] + 899 y[55] + 21 y[56] + 325 y[57] + 814 y[58]
   + 108 y[59] + 177 y[60] + 264 y[61] + 483 y[62] + 819 y[63] + 715 y[64]
   + 495 y[65] + 428 y[66] + 50 y[67] + 267 y[68] + 71 y[69] + 960 y[70]
   + 856 y[71] + 787 y[72] + 500 y[73] + 20 y[74] + 106 y[75] + 467 y[76]
   + 610 y[77] + 446 y[78] + 71 y[79] + 85 z[0] + 3 z[1] + 12 z[2]
   + 78 z[3] + 44 z[4] + 95 z[5] + 65 z[6] + 18 z[7] + 12 z[8] + 29 z[9]
   + 69 z[10] + 93 z[11] + 82 z[12] + 34 z[13] + 50 z[14] + 100 z[15]
   + 9 z[16] + 88 z[17] + 85 z[18] + 11 z[19] + 93 z[20] + 27 z[21]
   + 68 z[22] + 25 z[23] + 20 z[24] + 57 z[25] + 84 z[26] + 63 z[27]
   + 75 z[28] + 95 z[29] + 40 z[30] + 37 z[31] + 64 z[32] + 72 z[33]
   + 68 z[34] + 60 z[35] + 42 z[36] + 55 z[37] + 37 z[38] + 19 z[39]
   + 79 z[40] + 70 z[41] + 6 z[42] + 9 z[43] + 31 z[44] + 18 z[45]
   + 81 z[46] + 62 z[47] + 65 z[48] + 52 z[49] + 22 z[50] + 77 z[51]
   + 38 z[52] + 29 z[53] + 83 z[54] + 90 z[55] + 2 z[56] + 32 z[57]
   + 81 z[58] + 11 z[59] + 18 z[60] + 26 z[61] + 48 z[62] + 82 z[63]
   + 72 z[64] + 50 z[65] + 43 z[66] + 5 z[67] + 27 z[68] + 7 z[69]
   + 96 z[70] + 86 z[71] + 79 z[72] + 50 z[73] + 2 z[74] + 11 z[75]
   + 47 z[76] + 61 z[77] + 45 z[78] + 7 z[79] <= 19803
 primal_lower0: - 8 y[0] - 3 y[1] - 2 y[2] - 6 y[3] - 8 y[4] - 5 y[5]
   - 12 y[6] - 8 y[7] - 5 y[8] - 4 y[9] - 4 y[10] - 9 y[11] - 5 y[12]
   - 4 y[14] - 9 y[15] - 2 y[16] - 2 y[17] - 6 y[18] - 6 y[19] - 7 y[20]
   - 10 y[21] - 9 y[22] - 7 y[23] - 9 y[24] - 4 y[25] - 4 y[26] - 2 y[27]
   - 3 y[28] - 7 y[29] - y[30] - 5 y[31] - 5 y[32] - 6 y[33] - 5 y[34]
   - 3 y[35] - 5 y[36] - 11 y[37] - 11 y[38] - 6 y[39] - 7 y[40] - y[41]
   - 3 y[42] - 5 y[43] - 10 y[44] - 3 y[45] - 6 y[46] - 12 y[47] - 6 y[48]
   - 7 y[49] - y[50] - 10 y[51] - 7 y[52] - 6 y[53] - 4 y[54] - 3 y[55]
   - 5 y[56] - 8 y[57] - 10 y[58] - 6 y[59] - 8 y[60] - 7 y[61] - 7 y[62]
   - 8 y[63] - 10 y[64] - y[65] - 9 y[66] - 3 y[67] - 2 y[68] - 7 y[69]
   - y[70] - 11 y[71] - 7 y[72] - 9 y[73] - 7 y[75] - 6 y[76] - y[77]
   - y[78] - 8 y[79] + 156 u[0] + 290 u[1] + 520 u[2] + 539 u[3] + 574 u[4]
   + 228 u[5] + 31 u[6] + 216 u[7] + 776 u[8] + 30 u[9] + 502 u[10]
   + 621 u[11] + 769 u[12] + 798 u[13] + 168 u[14] + 424 u[15] + 25 u[16]
   + 267 u[17] + 334 u[18] + 271 u[19] + 208 u[20] + 563 u[21] + 391 u[22]
   + 375 u[23] + 416 u[24] + 623 u[25] + 160 u[26] + 78 u[27] + 953 u[28]
   + 451 u[29] + 769 u[30] + 776 u[31] + 825 u[32] + 650 u[33] + 324 u[34]
   + 478 u[35] + 429 u[36] + 583 u[37] + 362 u[38] + 998 u[39] + 729 u[40]
   + 598 u[41] + 980 u[42] + 715 u[43] + 528 u[44] + 960 u[45] + 771 u[46]
   + 124 u[47] + 289 u[48] + 621 u[49] + 68 u[50] + 899 u[51] + 798 u[52]
   + 940 u[53] + 860 u[54] + 980 u[55] + 50 u[56] + 14 u[57] + 499 u[58]
   + 133 u[59] + 454 u[60] + 857 u[61] + 344 u[62] + 964 u[63] + 8 u[64]
   + 552 u[65] + 425 u[66] + 307 u[67] + 456 u[68] + 856 u[69] + 877 u[70]
   + 881 u[71] + 424 u[72] + 93 u[73] + 361 u[74] + 299 u[75] + 736 u[76]
   + 411 u[77] + 811 u[78] + 152 u[79] <= 998
 mccormick1[0]: - u[0] + z[0] <= 0
 mccormick1[1]: - u[1] + z[1] <= 0
 mccormick1[2]: - u[2] + z[2] <= 0
 mccormick1[3]: - u[3] + z[3] <= 0
 mccormick1[4]: - u[4] + z[4] <= 0
 mccormick1[5]: - u[5] + z[5] <= 0
 mccormick1[6]: - u[6] + z[6] <= 0
 mccormick1[7]: - u[7] + z[7] <= 0
 mccormick1[8]: - u[8] + z[8] <= 0
 mccormick1[9]: - u[9] + z[9] <= 0
 mccormick1[10]: - u[10] + z[10] <= 0
 mccormick1[11]: - u[11] + z[11] <= 0
 mccormick1[12]: - u[12] + z[12] <= 0
 mccormick1[13]: - u[13] + z[13] <= 0
 mccormick1[14]: - u[14] + z[14] <= 0
 mccormick1[15]: - u[15] + z[15] <= 0
 mccormick1[16]: - u[16] + z[16] <= 0
 mccormick1[17]: - u[17] + z[17] <= 0
 mccormick1[18]: - u[18] + z[18] <= 0
 mccormick1[19]: - u[19] + z[19] <= 0
 mccormick1[20]: - u[20] + z[20] <= 0
 mccormick1[21]: - u[21] + z[21] <= 0
 mccormick1[22]: - u[22] + z[22] <= 0
 mccormick1[23]: - u[23] + z[23] <= 0
 mccormick1[24]: - u[24] + z[24] <= 0
 mccormick1[25]: - u[25] + z[25] <= 0
 mccormick1[26]: - u[26] + z[26] <= 0
 mccormick1[27]: - u[27] + z[27] <= 0
 mccormick1[28]: - u[28] + z[28] <= 0
 mccormick1[29]: - u[29] + z[29] <= 0
 mccormick1[30]: - u[30] + z[30] <= 0
 mccormick1[31]: - u[31] + z[31] <= 0
 mccormick1[32]: - u[32] + z[32] <= 0
 mccormick1[33]: - u[33] + z[33] <= 0
 mccormick1[34]: - u[34] + z[34] <= 0
 mccormick1[35]: - u[35] + z[35] <= 0
 mccormick1[36]: - u[36] + z[36] <= 0
 mccormick1[37]: - u[37] + z[37] <= 0
 mccormick1[38]: - u[38] + z[38] <= 0
 mccormick1[39]: - u[39] + z[39] <= 0
 mccormick1[40]: - u[40] + z[40] <= 0
 mccormick1[41]: - u[41] + z[41] <= 0
 mccormick1[42]: - u[42] + z[42] <= 0
 mccormick1[43]: - u[43] + z[43] <= 0
 mccormick1[44]: - u[44] + z[44] <= 0
 mccormick1[45]: - u[45] + z[45] <= 0
 mccormick1[46]: - u[46] + z[46] <= 0
 mccormick1[47]: - u[47] + z[47] <= 0
 mccormick1[48]: - u[48] + z[48] <= 0
 mccormick1[49]: - u[49] + z[49] <= 0
 mccormick1[50]: - u[50] + z[50] <= 0
 mccormick1[51]: - u[51] + z[51] <= 0
 mccormick1[52]: - u[52] + z[52] <= 0
 mccormick1[53]: - u[53] + z[53] <= 0
 mccormick1[54]: - u[54] + z[54] <= 0
 mccormick1[55]: - u[55] + z[55] <= 0
 mccormick1[56]: - u[56] + z[56] <= 0
 mccormick1[57]: - u[57] + z[57] <= 0
 mccormick1[58]: - u[58] + z[58] <= 0
 mccormick1[59]: - u[59] + z[59] <= 0
 mccormick1[60]: - u[60] + z[60] <= 0
 mccormick1[61]: - u[61] + z[61] <= 0
 mccormick1[62]: - u[62] + z[62] <= 0
 mccormick1[63]: - u[63] + z[63] <= 0
 mccormick1[64]: - u[64] + z[64] <= 0
 mccormick1[65]: - u[65] + z[65] <= 0
 mccormick1[66]: - u[66] + z[66] <= 0
 mccormick1[67]: - u[67] + z[67] <= 0
 mccormick1[68]: - u[68] + z[68] <= 0
 mccormick1[69]: - u[69] + z[69] <= 0
 mccormick1[70]: - u[70] + z[70] <= 0
 mccormick1[71]: - u[71] + z[71] <= 0
 mccormick1[72]: - u[72] + z[72] <= 0
 mccormick1[73]: - u[73] + z[73] <= 0
 mccormick1[74]: - u[74] + z[74] <= 0
 mccormick1[75]: - u[75] + z[75] <= 0
 mccormick1[76]: - u[76] + z[76] <= 0
 mccormick1[77]: - u[77] + z[77] <= 0
 mccormick1[78]: - u[78] + z[78] <= 0
 mccormick1[79]: - u[79] + z[79] <= 0
 mccormick2[0]: - y[0] + z[0] <= 0
 mccormick2[1]: - y[1] + z[1] <= 0
 mccormick2[2]: - y[2] + z[2] <= 0
 mccormick2[3]: - y[3] + z[3] <= 0
 mccormick2[4]: - y[4] + z[4] <= 0
 mccormick2[5]: - y[5] + z[5] <= 0
 mccormick2[6]: - y[6] + z[6] <= 0
 mccormick2[7]: - y[7] + z[7] <= 0
 mccormick2[8]: - y[8] + z[8] <= 0
 mccormick2[9]: - y[9] + z[9] <= 0
 mccormick2[10]: - y[10] + z[10] <= 0
 mccormick2[11]: - y[11] + z[11] <= 0
 mccormick2[12]: - y[12] + z[12] <= 0
 mccormick2[13]: - y[13] + z[13] <= 0
 mccormick2[14]: - y[14] + z[14] <= 0
 mccormick2[15]: - y[15] + z[15] <= 0
 mccormick2[16]: - y[16] + z[16] <= 0
 mccormick2[17]: - y[17] + z[17] <= 0
 mccormick2[18]: - y[18] + z[18] <= 0
 mccormick2[19]: - y[19] + z[19] <= 0
 mccormick2[20]: - y[20] + z[20] <= 0
 mccormick2[21]: - y[21] + z[21] <= 0
 mccormick2[22]: - y[22] + z[22] <= 0
 mccormick2[23]: - y[23] + z[23] <= 0
 mccormick2[24]: - y[24] + z[24] <= 0
 mccormick2[25]: - y[25] + z[25] <= 0
 mccormick2[26]: - y[26] + z[26] <= 0
 mccormick2[27]: - y[27] + z[27] <= 0
 mccormick2[28]: - y[28] + z[28] <= 0
 mccormick2[29]: - y[29] + z[29] <= 0
 mccormick2[30]: - y[30] + z[30] <= 0
 mccormick2[31]: - y[31] + z[31] <= 0
 mccormick2[32]: - y[32] + z[32] <= 0
 mccormick2[33]: - y[33] + z[33] <= 0
 mccormick2[34]: - y[34] + z[34] <= 0
 mccormick2[35]: - y[35] + z[35] <= 0
 mccormick2[36]: - y[36] + z[36] <= 0
 mccormick2[37]: - y[37] + z[37] <= 0
 mccormick2[38]: - y[38] + z[38] <= 0
 mccormick2[39]: - y[39] + z[39] <= 0
 mccormick2[40]: - y[40] + z[40] <= 0
 mccormick2[41]: - y[41] + z[41] <= 0
 mccormick2[42]: - y[42] + z[42] <= 0
 mccormick2[43]: - y[43] + z[43] <= 0
 mccormick2[44]: - y[44] + z[44] <= 0
 mccormick2[45]: - y[45] + z[45] <= 0
 mccormick2[46]: - y[46] + z[46] <= 0
 mccormick2[47]: - y[47] + z[47] <= 0
 mccormick2[48]: - y[48] + z[48] <= 0
 mccormick2[49]: - y[49] + z[49] <= 0
 mccormick2[50]: - y[50] + z[50] <= 0
 mccormick2[51]: - y[51] + z[51] <= 0
 mccormick2[52]: - y[52] + z[52] <= 0
 mccormick2[53]: - y[53] + z[53] <= 0
 mccormick2[54]: - y[54] + z[54] <= 0
 mccormick2[55]: - y[55] + z[55] <= 0
 mccormick2[56]: - y[56] + z[56] <= 0
 mccormick2[57]: - y[57] + z[57] <= 0
 mccormick2[58]: - y[58] + z[58] <= 0
 mccormick2[59]: - y[59] + z[59] <= 0
 mccormick2[60]: - y[60] + z[60] <= 0
 mccormick2[61]: - y[61] + z[61] <= 0
 mccormick2[62]: - y[62] + z[62] <= 0
 mccormick2[63]: - y[63] + z[63] <= 0
 mccormick2[64]: - y[64] + z[64] <= 0
 mccormick2[65]: - y[65] + z[65] <= 0
 mccormick2[66]: - y[66] + z[66] <= 0
 mccormick2[67]: - y[67] + z[67] <= 0
 mccormick2[68]: - y[68] + z[68] <= 0
 mccormick2[69]: - y[69] + z[69] <= 0
 mccormick2[70]: - y[70] + z[70] <= 0
 mccormick2[71]: - y[71] + z[71] <= 0
 mccormick2[72]: - y[72] + z[72] <= 0
 mccormick2[73]: - y[73] + z[73] <= 0
 mccormick2[74]: - y[74] + z[74] <= 0
 mccormick2[75]: - y[75] + z[75] <= 0
 mccormick2[76]: - y[76] + z[76] <= 0
 mccormick2[77]: - y[77] + z[77] <= 0
 mccormick2[78]: - y[78] + z[78] <= 0
 mccormick2[79]: - y[79] + z[79] <= 0
 mccormick3[0]: y[0] + u[0] - z[0] <= 1
 mccormick3[1]: y[1] + u[1] - z[1] <= 1
 mccormick3[2]: y[2] + u[2] - z[2] <= 1
 mccormick3[3]: y[3] + u[3] - z[3] <= 1
 mccormick3[4]: y[4] + u[4] - z[4] <= 1
 mccormick3[5]: y[5] + u[5] - z[5] <= 1
 mccormick3[6]: y[6] + u[6] - z[6] <= 1
 mccormick3[7]: y[7] + u[7] - z[7] <= 1
 mccormick3[8]: y[8] + u[8] - z[8] <= 1
 mccormick3[9]: y[9] + u[9] - z[9] <= 1
 mccormick3[10]: y[10] + u[10] - z[10] <= 1
 mccormick3[11]: y[11] + u[11] - z[11] <= 1
 mccormick3[12]: y[12] + u[12] - z[12] <= 1
 mccormick3[13]: y[13] + u[13] - z[13] <= 1
 mccormick3[14]: y[14] + u[14] - z[14] <= 1
 mccormick3[15]: y[15] + u[15] - z[15] <= 1
 mccormick3[16]: y[16] + u[16] - z[16] <= 1
 mccormick3[17]: y[17] + u[17] - z[17] <= 1
 mccormick3[18]: y[18] + u[18] - z[18] <= 1
 mccormick3[19]: y[19] + u[19] - z[19] <= 1
 mccormick3[20]: y[20] + u[20] - z[20] <= 1
 mccormick3[21]: y[21] + u[21] - z[21] <= 1
 mccormick3[22]: y[22] + u[22] - z[22] <= 1
 mccormick3[23]: y[23] + u[23] - z[23] <= 1
 mccormick3[24]: y[24] + u[24] - z[24] <= 1
 mccormick3[25]: y[25] + u[25] - z[25] <= 1
 mccormick3[26]: y[26] + u[26] - z[26] <= 1
 mccormick3[27]: y[27] + u[27] - z[27] <= 1
 mccormick3[28]: y[28] + u[28] - z[28] <= 1
 mccormick3[29]: y[29] + u[29] - z[29] <= 1
 mccormick3[30]: y[30] + u[30] - z[30] <= 1
 mccormick3[31]: y[31] + u[31] - z[31] <= 1
 mccormick3[32]: y[32] + u[32] - z[32] <= 1
 mccormick3[33]: y[33] + u[33] - z[33] <= 1
 mccormick3[34]: y[34] + u[34] - z[34] <= 1
 mccormick3[35]: y[35] + u[35] - z[35] <= 1
 mccormick3[36]: y[36] + u[36] - z[36] <= 1
 mccormick3[37]: y[37] + u[37] - z[37] <= 1
 mccormick3[38]: y[38] + u[38] - z[38] <= 1
 mccormick3[39]: y[39] + u[39] - z[39] <= 1
 mccormick3[40]: y[40] + u[40] - z[40] <= 1
 mccormick3[41]: y[41] + u[41] - z[41] <= 1
 mccormick3[42]: y[42] + u[42] - z[42] <= 1
 mccormick3[43]: y[43] + u[43] - z[43] <= 1
 mccormick3[44]: y[44] + u[44] - z[44] <= 1
 mccormick3[45]: y[45] + u[45] - z[45] <= 1
 mccormick3[46]: y[46] + u[46] - z[46] <= 1
 mccormick3[47]: y[47] + u[47] - z[47] <= 1
 mccormick3[48]: y[48] + u[48] - z[48] <= 1
 mccormick3[49]: y[49] + u[49] - z[49] <= 1
 mccormick3[50]: y[50] + u[50] - z[50] <= 1
 mccormick3[51]: y[51] + u[51] - z[51] <= 1
 mccormick3[52]: y[52] + u[52] - z[52] <= 1
 mccormick3[53]: y[53] + u[53] - z[53] <= 1
 mccormick3[54]: y[54] + u[54] - z[54] <= 1
 mccormick3[55]: y[55] + u[55] - z[55] <= 1
 mccormick3[56]: y[56] + u[56] - z[56] <= 1
 mccormick3[57]: y[57] + u[57] - z[57] <= 1
 mccormick3[58]: y[58] + u[58] - z[58] <= 1
 mccormick3[59]: y[59] + u[59] - z[59] <= 1
 mccormick3[60]: y[60] + u[60] - z[60] <= 1
 mccormick3[61]: y[61] + u[61] - z[61] <= 1
 mccormick3[62]: y[62] + u[62] - z[62] <= 1
 mccormick3[63]: y[63] + u[63] - z[63] <= 1
 mccormick3[64]: y[64] + u[64] - z[64] <= 1
 mccormick3[65]: y[65] + u[65] - z[65] <= 1
 mccormick3[66]: y[66] + u[66] - z[66] <= 1
 mccormick3[67]: y[67] + u[67] - z[67] <= 1
 mccormick3[68]: y[68] + u[68] - z[68] <= 1
 mccormick3[69]: y[69] + u[69] - z[69] <= 1
 mccormick3[70]: y[70] + u[70] - z[70] <= 1
 mccormick3[71]: y[71] + u[71] - z[71] <= 1
 mccormick3[72]: y[72] + u[72] - z[72] <= 1
 mccormick3[73]: y[73] + u[73] - z[73] <= 1
 mccormick3[74]: y[74] + u[74] - z[74] <= 1
 mccormick3[75]: y[75] + u[75] - z[75] <= 1
 mccormick3[76]: y[76] + u[76] - z[76] <= 1
 mccormick3[77]: y[77] + u[77] - z[77] <= 1
 mccormick3[78]: y[78] + u[78] - z[78] <= 1
 mccormick3[79]: y[79] + u[79] - z[79] <= 1
Bounds
Binaries
 y[0] y[1] y[2] y[3] y[4] y[5] y[6] y[7] y[8] y[9] y[10] y[11] y[12] y[13]
 y[14] y[15] y[16] y[17] y[18] y[19] y[20] y[21] y[22] y[23] y[24] y[25]
 y[26] y[27] y[28] y[29] y[30] y[31] y[32] y[33] y[34] y[35] y[36] y[37]
 y[38] y[39] y[40] y[41] y[42] y[43] y[44] y[45] y[46] y[47] y[48] y[49]
 y[50] y[51] y[52] y[53] y[54] y[55] y[56] y[57] y[58] y[59] y[60] y[61]
 y[62] y[63] y[64] y[65] y[66] y[67] y[68] y[69] y[70] y[71] y[72] y[73]
 y[74] y[75] y[76] y[77] y[78] y[79] u[0] u[1] u[2] u[3] u[4] u[5] u[6]
 u[7] u[8] u[9] u[10] u[11] u[12] u[13] u[14] u[15] u[16] u[17] u[18] u[19]
 u[20] u[21] u[22] u[23] u[24] u[25] u[26] u[27] u[28] u[29] u[30] u[31]
 u[32] u[33] u[34] u[35] u[36] u[37] u[38] u[39] u[40] u[41] u[42] u[43]
 u[44] u[45] u[46] u[47] u[48] u[49] u[50] u[51] u[52] u[53] u[54] u[55]
 u[56] u[57] u[58] u[59] u[60] u[61] u[62] u[63] u[64] u[65] u[66] u[67]
 u[68] u[69] u[70] u[71] u[72] u[73] u[74] u[75] u[76] u[77] u[78] u[79]
 z[0] z[1] z[2] z[3] z[4] z[5] z[6] z[7] z[8] z[9] z[10] z[11] z[12] z[13]
 z[14] z[15] z[16] z[17] z[18] z[19] z[20] z[21] z[22] z[23] z[24] z[25]
 z[26] z[27] z[28] z[29] z[30] z[31] z[32] z[33] z[34] z[35] z[36] z[37]
 z[38] z[39] z[40] z[41] z[42] z[43] z[44] z[45] z[46] z[47] z[48] z[49]
 z[50] z[51] z[52] z[53] z[54] z[55] z[56] z[57] z[58] z[59] z[60] z[61]
 z[62] z[63] z[64] z[65] z[66] z[67] z[68] z[69] z[70] z[71] z[72] z[73]
 z[74] z[75] z[76] z[77] z[78] z[79]
End
